10
20
384739
0
0
32 35 35 35 35 33 35 34 33 35 35 34 37 32 34 32 38 35 33 34
1
0
45 49 45 49 48 46 49 48 46 47 46 47 50 49 47 47 50 48 47 46
2
0
47 45 47 45 46 46 46 45 47 47 48 47 48 46 49 47 47 44 46 42
3
0
54 54 54 51 55 53 57 54 57 56 54 54 54 57 53 54 53 58 57 59
4
0
50 52 52 56 52 56 50 51 53 50 53 53 48 55 55 52 48 53 53 53
5
0
52 51 53 52 56 54 49 51 56 53 51 55 55 53 55 53 53 53 52 57
6
0
55 54 55 55 56 51 53 57 54 53 52 54 57 56 54 55 55 55 54 55
7
0
63 62 66 64 61 64 63 65 61 64 63 65 62 63 67 63 65 66 59 60
8
0
52 52 53 50 50 49 53 47 50 51 47 50 51 53 51 48 50 52 49 51
9
0
62 61 63 67 65 60 63 60 64 62 59 61 65 57 60 62 60 60 59 63
